Pb              Cs              I       
   1.0000000000000000     
    12.5743331908999991    0.0000000000000000    0.0000000000000000
     0.0000000000000000   12.5743331908999991    0.0000000000000000
     0.0000000000000000    0.0000000000000000   12.5743331908999991
  Pb              Cs              I             
     8     8    25
Direct
  0.0138996333599338  0.0032531927204759  0.0068364624843335
  0.0119730255494620  0.0112416130518964  0.4990359106224942
  0.0144966655341588  0.4871992312179573  1.0081713053079391
  0.0148600668063404  0.5092850506296259  0.5074987559012278
  0.5145254818793943  0.9914411212943334  1.0047144591070183
  0.5112525030280333  0.0029987501060883  0.4900612333062750
  0.5252568905724906  0.4933656529943615  0.0137916006680695
  0.5109046411949552  0.5491381159813470  0.5013724688611761
  0.2735533047057793  0.2427560793504850  0.2202549686535014
  0.2708422259086812  0.2446693496399802  0.7152927121640724
  0.2323170549153779  0.7106151891463818  0.2436630011069734
  0.2256965729161892  0.7512884146874063  0.7934270570790356
  0.7627062113934825  0.2857287887465697  0.3053775801378282
  0.7532611995891277  0.2430931817494245  0.7525074933804801
  0.7792897508504160  0.7864574822319385  0.2716832499314783
  0.7949702948319712  0.7615115132626367  0.7721048112734816
  0.9635992163009766  0.0488563345699115  0.2516716894127829
  0.0409798924173810  0.9847229559824244  0.7526409128139334
  0.0304951731162259  0.4567276315649000  0.2580968671934035
  0.0045485644015434  0.5325147996405171  0.7583433464750644
  0.5638431952206799  0.0551782707008160  0.2457695095592100
  0.4601031527680892  0.9906461262904055  0.7486775683424697
  0.5032043435592581  0.4500347390977081  0.2594986497444145
  0.5235858196055094  0.4559702510913124  0.7581120677214482
  0.2638826337957269  0.9533312905156388  0.0524140904175424
  0.2592617452604000  0.0406656890616534  0.4556470697536029
  0.2709761263090831  0.5259449597408268  1.0006746453014144
  0.2641390544314339  0.4870576496344807  0.5112460814055750
  0.7644402761105703  0.0193089085733104  0.9566201221721170
  0.7600731792231767  0.9691090788576209  0.5387315529556065
  0.7710673488141446  0.4215413797600876  0.0167588194127370
  0.7631341868503452  0.5539921162730962  0.4977998965004347
  0.0745241145435747  0.2451965160359922  0.9658396558201873
  0.9805836417522481  0.2592653201277976  0.5447027894717883
  0.9838926296631538  0.7452875466922082  0.0356767757127139
  0.0415082473229457  0.7598824338422501  0.4783050790679447
  0.4705557398224876  0.2385270613855680  0.9689031788946345
  0.5368490412369634  0.2473269122229341  0.5253076484842225
  0.5797358891185906  0.7396529367510961  0.0267520501823710
  0.4932009821263055  0.7627966342520021  0.3772859813438916
  0.5044675321058079  0.7150450308699425  0.6957308818559409

             NaN             NaN             NaN
             NaN             NaN             NaN
             NaN             NaN             NaN
             NaN             NaN             NaN
             NaN             NaN             NaN
             NaN             NaN             NaN
             NaN             NaN             NaN
             NaN             NaN             NaN
             NaN             NaN             NaN
             NaN             NaN             NaN
             NaN             NaN             NaN
             NaN             NaN             NaN
             NaN             NaN             NaN
             NaN             NaN             NaN
             NaN             NaN             NaN
             NaN             NaN             NaN
             NaN             NaN             NaN
             NaN             NaN             NaN
             NaN             NaN             NaN
             NaN             NaN             NaN
             NaN             NaN             NaN
             NaN             NaN             NaN
             NaN             NaN             NaN
             NaN             NaN             NaN
             NaN             NaN             NaN
             NaN             NaN             NaN
             NaN             NaN             NaN
             NaN             NaN             NaN
             NaN             NaN             NaN
             NaN             NaN             NaN
             NaN             NaN             NaN
             NaN             NaN             NaN
             NaN             NaN             NaN
             NaN             NaN             NaN
             NaN             NaN             NaN
             NaN             NaN             NaN
             NaN             NaN             NaN
             NaN             NaN             NaN
             NaN             NaN             NaN
             NaN             NaN             NaN
             NaN             NaN             NaN
