Pb              Cs              I       
   1.0000000000000000     
    12.5743331908999991    0.0000000000000000    0.0000000000000000
     0.0000000000000000   12.5743331908999991    0.0000000000000000
     0.0000000000000000    0.0000000000000000   12.5743331908999991
  Pb              Cs              I             
     8     8    25
Direct
  0.0197149159780330  0.0163501290919754  0.0111815131597192
  0.0084918407375841  0.0128374297821700  0.5102354710065240
  0.0085369255382029  0.5087742077132933  0.0041142377043034
  0.0029994346277309  0.5080891871230359  0.5002392568463746
  0.5097761029132718  0.0041212597946527  0.0028209987377039
  0.5103723125546438  0.0049537504118369  0.5025894896288380
  0.5064975123412971  0.5090438297963987  0.0140987457812465
  0.5182057708274600  0.5187669926365034  0.4895662489023175
  0.2569312029224733  0.2296316659077411  0.2291225042263786
  0.2622351477652138  0.2248315030326298  0.7160376916911988
  0.2340562077143507  0.7190493720790662  0.2540638926678433
  0.2585175123448574  0.7303888143941594  0.7240299124624658
  0.7529975272142725  0.2700506261731854  0.2557959890849232
  0.7411722385670962  0.2866100178538930  0.7559348089417297
  0.7607872438377115  0.8046173043180778  0.2771160811836548
  0.8071660479989182  0.8152916161670939  0.8117747580849716
  0.9751995162431026  0.0558592028973055  0.2596263301275881
  0.0656751494214601  0.9739655022891562  0.7598461684634898
  0.0379014423091429  0.4530094168951325  0.2526186218740377
 -0.0168945011898090  0.5563099742451527  0.7533825573508336
  0.5489280357737278  0.0430952516915694  0.2521723721566373
  0.4629110569019900  0.9715447390851142  0.7520718136017639
  0.4636994622787039  0.4541573199165587  0.2529167623181219
  0.4518536709271925  0.4682400061840045  0.7695387631510051
  0.2642999850013533  0.9608758350116091  0.0574286653560364
  0.2582517855449095  0.0271617393415074  0.4641857744500090
  0.2544859627004427  0.5670497306556113 -0.0073410914036172
  0.2528953375686769  0.4908779742877621  0.5162877827306193
  0.7649596151435861  0.0661069080435782  0.9778969185161542
  0.7588570631951119  0.9793723265563973  0.5512184375591118
  0.7556127949426001  0.4579207728550666  1.0114839329577729
  0.7572220319027050  0.5274103131588472  0.4120836028949492
  0.0674219097848811  0.2609094714361707  0.9625945607527457
  0.9798354804889386  0.2601768773691819  0.5579698854037118
  0.9765054137399394  0.7609822454053927  0.0598226692391063
  0.0217491863235698  0.7608958418205550  0.4700926257461966
  0.4560023361460082  0.2502822275909916  0.9785980141259367
  0.5358136139505634  0.2553812183469112  0.5258391078784810
  0.5708771321458094  0.7543452253244018  0.0268009063127522
  0.4811585953225098  0.7584123493017080  0.4238620477314813
  0.6378637325964576  0.6234319375958068  0.6872811705952017

             NaN             NaN             NaN
             NaN             NaN             NaN
             NaN             NaN             NaN
             NaN             NaN             NaN
             NaN             NaN             NaN
             NaN             NaN             NaN
             NaN             NaN             NaN
             NaN             NaN             NaN
             NaN             NaN             NaN
             NaN             NaN             NaN
             NaN             NaN             NaN
             NaN             NaN             NaN
             NaN             NaN             NaN
             NaN             NaN             NaN
             NaN             NaN             NaN
             NaN             NaN             NaN
             NaN             NaN             NaN
             NaN             NaN             NaN
             NaN             NaN             NaN
             NaN             NaN             NaN
             NaN             NaN             NaN
             NaN             NaN             NaN
             NaN             NaN             NaN
             NaN             NaN             NaN
             NaN             NaN             NaN
             NaN             NaN             NaN
             NaN             NaN             NaN
             NaN             NaN             NaN
             NaN             NaN             NaN
             NaN             NaN             NaN
             NaN             NaN             NaN
             NaN             NaN             NaN
             NaN             NaN             NaN
             NaN             NaN             NaN
             NaN             NaN             NaN
             NaN             NaN             NaN
             NaN             NaN             NaN
             NaN             NaN             NaN
             NaN             NaN             NaN
             NaN             NaN             NaN
             NaN             NaN             NaN
