Pb              Cs              I       
   1.0000000000000000     
    12.5743331908999991    0.0000000000000000    0.0000000000000000
     0.0000000000000000   12.5743331908999991    0.0000000000000000
     0.0000000000000000    0.0000000000000000   12.5743331908999991
  Pb              Cs              I             
     8     8    25
Direct
  0.0062956109940601  0.0071713359400708  0.0041285867092377
  0.0060535204255559  0.0169779743705955  0.4932024791848428
  0.0130863998319405  0.4985348572500722 -0.0014823417148560
  1.0176825671194440  0.5189001085961024  0.4976088299101966
  0.5033575478670343 -0.0104071319035030 -0.0039398707006778
  0.5006684770381384  1.0147034175401251  0.4911040032296261
  0.5256687057187608  0.4985196473667808  1.0135809080262506
  0.5128255429394183  0.5309507772183509  0.5108031999742213
  0.2654238539196713  0.2600332422213643  0.2186592252819259
  0.2602211579699434  0.2375702590477492  0.7196306251560967
  0.2576014453264507  0.7130424605747556  0.2350650652435045
  0.2442695785057434  0.7602003502606679  0.7717007758050060
  0.7583299154202686  0.2756979325344167  0.3157368268872440
  0.7844207348961417  0.2532783408585700  0.7634567138640110
  0.7609478459023202  0.7875705334173747  0.2707182433093931
  0.8102947002307628  0.7829316195557898  0.7645609268280846
  0.9534083949097633  0.0489383979428964  0.2476277093645528
  0.0362398463455369  0.9940997952244199  0.7483023145408803
  1.0264208229088942  0.4781192462547531  0.2470237365772698
  0.0210185753771298  0.5539835827863885  0.7472575434836914
  0.5408937335080870  0.0576373803781190  0.2431778664822275
  0.4673790511403283 -0.0381699486448600  0.7420113871138341
  0.5058782353604763  0.4487124066617013  0.2613250364657931
  0.5155420962761843  0.4066962135882328  0.7790387964741077
  0.2538127165768570  0.9658516829948567  0.0495606022307710
  0.2526534835185386  0.0676971118867145  0.4581407399365767
  0.2712184968147373  0.5321692396523123 -0.0122861527504953
  0.2663172542087036  0.4725999409305767  0.4989546325472166
  0.7549618492527407  0.0236767948640381  0.9612906488770748
  0.7543680295460689  0.9817949335969341  0.5294438563208711
  0.7705204744700785  0.4245123249227938  1.0240735042702203
  0.7661081771104864  0.5441497612748383  0.4939447519486635
  0.0692114121241839  0.2530724918135296  0.9683031109264847
  0.9814868400396334  0.2677761126436398  0.5385466602084616
  0.9801690418710250  0.7534238692934898  0.0319976014063185
  0.0471106560780526  0.7683082523125964  0.4617471933570083
  0.4585385404233367  0.2271959469393303  0.9714431676929658
  0.5393915077153063  0.2533264248208627  0.5290705535662901
  0.5549328708743499  0.7416398611632377  0.0476958995878942
  0.4762101428741464  0.7637098292992015  0.4302621437374272
  0.5392832570914741  0.6585089496780668  0.7245124986402606

             NaN             NaN             NaN
             NaN             NaN             NaN
             NaN             NaN             NaN
             NaN             NaN             NaN
             NaN             NaN             NaN
             NaN             NaN             NaN
             NaN             NaN             NaN
             NaN             NaN             NaN
             NaN             NaN             NaN
             NaN             NaN             NaN
             NaN             NaN             NaN
             NaN             NaN             NaN
             NaN             NaN             NaN
             NaN             NaN             NaN
             NaN             NaN             NaN
             NaN             NaN             NaN
             NaN             NaN             NaN
             NaN             NaN             NaN
             NaN             NaN             NaN
             NaN             NaN             NaN
             NaN             NaN             NaN
             NaN             NaN             NaN
             NaN             NaN             NaN
             NaN             NaN             NaN
             NaN             NaN             NaN
             NaN             NaN             NaN
             NaN             NaN             NaN
             NaN             NaN             NaN
             NaN             NaN             NaN
             NaN             NaN             NaN
             NaN             NaN             NaN
             NaN             NaN             NaN
             NaN             NaN             NaN
             NaN             NaN             NaN
             NaN             NaN             NaN
             NaN             NaN             NaN
             NaN             NaN             NaN
             NaN             NaN             NaN
             NaN             NaN             NaN
             NaN             NaN             NaN
             NaN             NaN             NaN
