Pb              Cs              I             
   1.0000000000000000     
  12.5743331908999991   0.0000000000000000   0.0000000000000000
   0.0000000000000000  12.5743331908999991   0.0000000000000000
   0.0000000000000000   0.0000000000000000  12.5743331908999991
Pb              Cs              I             
8  8  25  
Direct
  0.0144955261972817  0.0145352126782612  0.0058582681464168  
  0.0029866474577196  0.0067243641186271  0.5113542626037721  
  0.0131886687509310  0.4986412038397201  0.0067156852897887  
  0.0012108800180377  0.5047600972234453  0.5099832605190266  
  0.5181095958550000  0.0058571433412072  0.0086961377220614  
  0.4994226216791373  0.9615508384372575  0.4864145851749098  
  0.5151337633226093  0.5051334605758897  0.9997425274927716  
  0.4983824935740697  0.5114130121306758  0.4885662741401288  
  0.3003885368004541  0.2525573132809038  0.2385119849956474  
  0.2487614999068726  0.2627369908432528  0.7173749696192286  
  0.1972666907472312  0.7572665602514332  0.2704014688857316  
  0.2588143500324662  0.7542550833177839  0.8390374136737646  
  0.7702010255180634  0.2545009269505166  0.3201919718598606  
  0.7098941024287111  0.2576164675722091  0.7365247866537844  
  0.7708036227976888  0.7579731107052449  0.2536080066256620  
  0.8001321372789240  0.7580427893294515  0.7689248475581372  
  0.9637318957992466  0.0192697858250438  0.2579656887237671  
  0.0659372260547064  0.9818277509587140  0.7581949345498898  
  0.9556986019454577  0.4953048227444675  0.2575636524321159  
  0.0634642751360495  0.5299365989906333  0.7578068476878044  
  0.5591469248678931  0.0528419614737394  0.2505470734615532  
  0.4645386204141101  0.0359940581715898  0.7573575501086898  
  0.5590748378289286  0.4573042548857381  0.2436275265542823  
  0.4529598522733407  0.5058268794370087  0.7466395800122362  
  0.2685698757303693  0.9746353208506665  0.0624664882196786  
  0.2523236848779455  0.0211706417742861  0.4566692354804843  
  0.2663482412723658  0.5376978377726975  0.0626253278777584  
  0.2463398066208453  0.4886508696252482  0.4457095305754224  
  0.7684120513527660  0.0381965094153891  0.9499111239551480  
  0.7490182211682926  0.9957086129818138  0.5439916566949675  
  0.7663475492747418  0.4788940475958066  0.9462272536026031  
  0.7468949745917385  0.5228283672808030  0.5498086284810200  
  0.0817237741037977  0.2568960857468214  0.9955164927651244  
  0.9777533860253085  0.2561676211938222  0.5557954424847142  
  0.9874845584004297  0.7568371021001405  0.0240969575948301  
  0.9893104370177880  0.7561917792784869  0.4956653562876198  
  0.4687538523927473  0.2566118186870891  0.9641513859986985  
  0.5007679502963717  0.2620667100075229  0.5088208348743186  
  0.5625333959934983  0.7563078978920968  0.0037798146283957  
  0.4884209658460724  0.7497722637837867  0.3588078637680297  
  0.5032528783499677  0.7864958269306860  0.6713473022201342  
