Pb              Cs              I       
   1.0000000000000000     
    12.5743331908999991    0.0000000000000000    0.0000000000000000
     0.0000000000000000   12.5743331908999991    0.0000000000000000
     0.0000000000000000    0.0000000000000000   12.5743331908999991
  Pb              Cs              I             
     8     8    25
Direct
  0.0140686779338991  0.0078655245114445  0.0056325232683241
  0.0073454181686825  0.0118965387644364  0.5007478971247021
  0.0130508200123252  0.4927361452317729  0.0105235362413575
  1.0082343364103672  0.5107019736125462  0.5086512519146811
  0.5136933126117837 -0.0048079015217020  0.0053762285336132
  0.5074059120676211  1.0019840240496511  0.4904957179573002
  0.5198971536469098  0.4964976909110375  0.0129771307862577
  0.5040951538607786  0.5605955217600257  0.5037111671047759
  0.2690579633357695  0.2364747662898201  0.2247727957879095
  0.2672228603303866  0.2515564068299033  0.7165381526933475
  0.2251552070846098  0.7207945448875505  0.2433785465760909
  0.2178400209367940  0.7447078848331234  0.7837671947118477
  0.7586687883038351  0.2879637977349849  0.2991604410922620
  0.7504835973529311  0.2482563186179239  0.7511888812492065
  0.7761750707213392  0.7922267762275026  0.2688977094179921
  0.7855122062283615  0.7633341548991543  0.7758028041559492
  0.9655585098994535  0.0529546802210338  0.2524822670812930
  0.0423401446702583  0.9849422323260596  0.7530709596985615
  0.0354308688094514  0.4575010641096230  0.2606132651754086
 -0.0101430078273029  0.5313641766544360  0.7602621924208960
  0.5607199775917203  0.0577998010905931  0.2475864517808506
  0.4591050977346482  1.0099781129177627  0.7520755358107758
  0.4898363045539567  0.4531921395020060  0.2615441350525703
  0.5365852656939589  0.4700451524133453  0.7584504837211101
  0.2636526675108410  0.9571858629035139  0.0500560423745084
  0.2557600482177885  0.0307836771627290  0.4564902989304935
  0.2675607795394531  0.5353920991955680 -0.0022259285404001
  0.2582384271447813  0.5059459116540008  0.5324833498218384
  0.7643059170231400  0.0281071413531358  0.9602360886041078
  0.7560017490579121  0.9762711530948567  0.5439579133652082
  0.7681936373844196  0.4351226600620151  1.0204032414986692
  0.7565969095212153  0.5461402057001107  0.4922751936634100
  0.0727328424669877  0.2508006334204677  0.9664841365430303
  0.9840334273443510  0.2601867550798893  0.5473619439956423
  0.9800136995922006  0.7503584965233152  0.0350535055755996
  0.0253335742547879  0.7607253471006009  0.4724642091186942
  0.4670137195666176  0.2435805364659456  0.9738291752102606
  0.5257378481161616  0.2485446132233103  0.5230747249769060
  0.5762940508194280  0.7445002309698229  0.0222925227817783
  0.4917921697209248  0.7650697203558375  0.3639417992835264
  0.4947299062891781  0.7412987473986205  0.6811145134398020

             NaN             NaN             NaN
             NaN             NaN             NaN
             NaN             NaN             NaN
             NaN             NaN             NaN
             NaN             NaN             NaN
             NaN             NaN             NaN
             NaN             NaN             NaN
             NaN             NaN             NaN
             NaN             NaN             NaN
             NaN             NaN             NaN
             NaN             NaN             NaN
             NaN             NaN             NaN
             NaN             NaN             NaN
             NaN             NaN             NaN
             NaN             NaN             NaN
             NaN             NaN             NaN
             NaN             NaN             NaN
             NaN             NaN             NaN
             NaN             NaN             NaN
             NaN             NaN             NaN
             NaN             NaN             NaN
             NaN             NaN             NaN
             NaN             NaN             NaN
             NaN             NaN             NaN
             NaN             NaN             NaN
             NaN             NaN             NaN
             NaN             NaN             NaN
             NaN             NaN             NaN
             NaN             NaN             NaN
             NaN             NaN             NaN
             NaN             NaN             NaN
             NaN             NaN             NaN
             NaN             NaN             NaN
             NaN             NaN             NaN
             NaN             NaN             NaN
             NaN             NaN             NaN
             NaN             NaN             NaN
             NaN             NaN             NaN
             NaN             NaN             NaN
             NaN             NaN             NaN
             NaN             NaN             NaN
