Pb              Cs              I       
   1.0000000000000000     
    12.5743331908999991    0.0000000000000000    0.0000000000000000
     0.0000000000000000   12.5743331908999991    0.0000000000000000
     0.0000000000000000    0.0000000000000000   12.5743331908999991
  Pb              Cs              I             
     8     8    25
Direct
  0.0195082865414159  0.0144085087607713  0.0087928420184612
  0.0065867972804591  0.0132893151174649  0.5081371155890388
  0.0108474720245234  0.5027641276105609  0.0056427736219408
  1.0055283590889361  0.5077429662102784  0.5036517923175061
  0.5126878989007253  0.0027861585462017  0.0035994380539558
  0.5076443165051924  1.0055885570396568  0.4977843802600248
  0.5115513868567122  0.5053846401549223  0.0132123762083120
  0.5110700617399143  0.5301127057408598  0.4891542128399538
  0.2612728664533815  0.2450584269254285  0.2274506565299936
  0.2571911647865139  0.2289725132545457  0.7083931966625429
  0.2214720118763979  0.7371670921825589  0.2624530063437669
  0.2613557487012044  0.7416947770502248  0.7812162835535553
  0.7602982126943765  0.2790959403919587  0.2616393671120955
  0.7272646431306293  0.2581574752394459  0.7509728614286536
  0.7653927089614064  0.8023946551415486  0.2733525501663293
  0.8128903570490226  0.7927875545408056  0.7995622889534497
  0.9745800618747242  0.0535122266079511  0.2581292853016066
  0.0618649026010891  0.9739658428503833  0.7582763914146587
  0.0230595380005087  0.4523748622510123  0.2540522212420971
  0.0117605288339603  0.5552580308621619  0.7558412262631505
  0.5521619710759563  0.0533928709397911  0.2493552835808570
  0.4647186248438831  0.9866455259302648  0.7504799217224821
  0.4964015685692938  0.4428167072063490  0.2519452651164158
  0.4526609894805590  0.4626874667335545  0.7677371573089440
  0.2663096546243874  0.9602410749993078  0.0520000549144037
  0.2560344190406764  0.0290708325624543  0.4563225966964761
  0.2607511079327199  0.5523114381461109  1.0249340691173046
  0.2551568201967772  0.4909655304598305  0.4967650207130227
  0.7675541970891919  0.0499472473780583  0.9741648200741394
  0.7567294772030644  0.9801772218081508  0.5515469203135986
  0.7609937759269534  0.4521299752314721  0.9921179614620538
  0.7578039814630793  0.5300523090511639  0.4467743462699315
  0.0723974342226790  0.2577771582412985  0.9638606470817987
  0.9739751647773242  0.2607495148019171  0.5590561245971055
  0.9799533325900774  0.7579462464405894  0.0536662505741156
  0.0115306891545357  0.7618521213912234  0.4766263611245659
  0.4588553491688424  0.2494476190390369  0.9707552978796009
  0.5250780717972430  0.2527195106668149  0.5225854744952029
  0.5692123597061340  0.7528108685574776  0.0240449016341528
  0.4879200668412730  0.7592464469926267  0.3935715934847651
  0.5736857887848890  0.6770076972423963  0.6873756659580998

             NaN             NaN             NaN
             NaN             NaN             NaN
             NaN             NaN             NaN
             NaN             NaN             NaN
             NaN             NaN             NaN
             NaN             NaN             NaN
             NaN             NaN             NaN
             NaN             NaN             NaN
             NaN             NaN             NaN
             NaN             NaN             NaN
             NaN             NaN             NaN
             NaN             NaN             NaN
             NaN             NaN             NaN
             NaN             NaN             NaN
             NaN             NaN             NaN
             NaN             NaN             NaN
             NaN             NaN             NaN
             NaN             NaN             NaN
             NaN             NaN             NaN
             NaN             NaN             NaN
             NaN             NaN             NaN
             NaN             NaN             NaN
             NaN             NaN             NaN
             NaN             NaN             NaN
             NaN             NaN             NaN
             NaN             NaN             NaN
             NaN             NaN             NaN
             NaN             NaN             NaN
             NaN             NaN             NaN
             NaN             NaN             NaN
             NaN             NaN             NaN
             NaN             NaN             NaN
             NaN             NaN             NaN
             NaN             NaN             NaN
             NaN             NaN             NaN
             NaN             NaN             NaN
             NaN             NaN             NaN
             NaN             NaN             NaN
             NaN             NaN             NaN
             NaN             NaN             NaN
             NaN             NaN             NaN
