Pb              Cs              I       
   1.0000000000000000     
    12.5743331908999991    0.0000000000000000    0.0000000000000000
     0.0000000000000000   12.5743331908999991    0.0000000000000000
     0.0000000000000000    0.0000000000000000   12.5743331908999991
  Pb              Cs              I             
     8     8    25
Direct
  0.0158806932024952  0.0109085478024202  0.0040093880473704
  0.0064588599888080  0.0077471565762514  0.5032863463598894
  0.0174937077281205  0.4944465750946208  0.0070763628332495
  0.0115199289200059  0.5043395202310115  0.5107997502388604
  0.5173749031026181 -0.0023697659371487  0.0010286867905108
  0.5052476124904168 -0.0010571894234540  0.4883344950698883
  0.5236047476944442  0.4992583880130474  0.0113871803439497
  0.5072519105023962  0.5456866594960164  0.4953667396751125
  0.2884539560793172  0.2563096264379040  0.2342708250285917
  0.2577152743300628  0.2431014817459558  0.7124728773911532
  0.2119433992518213  0.7420984625291377  0.2647430442907484
  0.2522048841923226  0.7564018864055048  0.8238056750040843
  0.7698536176778987  0.2698296274090390  0.3027594640273572
  0.7267551868751754  0.2499768581663280  0.7397458264054719
  0.7773491269511564  0.7701690513674549  0.2627826108543792
  0.8057744837370899  0.7563087370182849  0.7678996202031995
  0.9614305799050644  0.0315816216075565  0.2533933741159488
  0.0578936558881470  0.9805653319711078  0.7536404319205116
 -0.0100332249399982  0.4831072991370856  0.2589730448790888
  0.0489204973648719  0.5337513353832669  0.7592323655030173
  0.5629193879867925  0.0513880414043683  0.2435381836993168
  0.4587898123334426  0.9969483798904096  0.7463216085147361
  0.5358646808396390  0.4516822161408904  0.2557536110020614
  0.4844855603633378  0.4610718732367678  0.7590912045994395
  0.2678396501859254  0.9654538941723482  0.0569822118436626
  0.2529679722436861  0.0236188036580793  0.4450927370971152
  0.2718680153071756  0.5365588036814289  0.0439276316770735
  0.2606069708494556  0.4833079317789256  0.4754965976701690
  0.7681590213589204  0.0277532675514292  0.9480252993694770
  0.7536095121977739  0.9784439224303207  0.5448751821149013
  0.7719682839656548  0.4405081366226797  0.9837916702066728
  0.7574980328908401  0.5201489857519407  0.5344450955450413
  0.0848677611034642  0.2526532917254146  0.9817081809514856
  0.9808742092766214  0.2552969825688174  0.5497652558106666
  0.9882882255705916  0.7530871779680445  0.0290082359793102
  0.0067379186868963  0.7557495496444924  0.4886449808812725
  0.4703936216163165  0.2449152142326922  0.9667776537028460
  0.5148828167228359  0.2457122347160492  0.5130604570617877
  0.5773866375136136  0.7459015964111912  0.0126410662508552
  0.4942383950404099  0.7584443701921396  0.3690209871963285
  0.5106247083840050  0.7170015369861108  0.6840240398439844

             NaN             NaN             NaN
             NaN             NaN             NaN
             NaN             NaN             NaN
             NaN             NaN             NaN
             NaN             NaN             NaN
             NaN             NaN             NaN
             NaN             NaN             NaN
             NaN             NaN             NaN
             NaN             NaN             NaN
             NaN             NaN             NaN
             NaN             NaN             NaN
             NaN             NaN             NaN
             NaN             NaN             NaN
             NaN             NaN             NaN
             NaN             NaN             NaN
             NaN             NaN             NaN
             NaN             NaN             NaN
             NaN             NaN             NaN
             NaN             NaN             NaN
             NaN             NaN             NaN
             NaN             NaN             NaN
             NaN             NaN             NaN
             NaN             NaN             NaN
             NaN             NaN             NaN
             NaN             NaN             NaN
             NaN             NaN             NaN
             NaN             NaN             NaN
             NaN             NaN             NaN
             NaN             NaN             NaN
             NaN             NaN             NaN
             NaN             NaN             NaN
             NaN             NaN             NaN
             NaN             NaN             NaN
             NaN             NaN             NaN
             NaN             NaN             NaN
             NaN             NaN             NaN
             NaN             NaN             NaN
             NaN             NaN             NaN
             NaN             NaN             NaN
             NaN             NaN             NaN
             NaN             NaN             NaN
