Pb              Cs              I       
   1.0000000000000000     
    12.5743331908999991    0.0000000000000000    0.0000000000000000
     0.0000000000000000   12.5743331908999991    0.0000000000000000
     0.0000000000000000    0.0000000000000000   12.5743331908999991
  Pb              Cs              I             
     8     8    25
Direct
  0.0154083813025733  0.0134201389958571  0.0072527059046012
  0.0036490828593631  0.0103596715531418  0.5051795173536390
  0.0138556936699555  0.4964188170873833  0.0075383732648967
  1.0104168089430250  0.5060930698471766  0.5097012629133328
  0.5157890479813144  0.0028818722502448  0.0022165078133184
  0.5044397328305258  1.0044800990960194  0.4899613299901593
  0.5211511900340930  0.5055867272460077  1.0097116527991001
  0.5073265200535204  0.5479482977522986  0.4921530309388998
  0.2708033441411747  0.2569089509526896  0.2330654943550233
  0.2598310907149900  0.2416626927659747  0.7094462197995901
  0.2117507532556719  0.7350506477414409  0.2632385183215531
  0.2462597774507853  0.7565833961661701  0.8091178350185896
  0.7640811032279229  0.2822094106389264  0.2954213799902927
  0.7269260601472680  0.2546922566403367  0.7395903345505720
  0.7764105327422642  0.7816500436648053  0.2716503531009487
  0.8052017306117100  0.7621260644232226  0.7776306288211715
  0.9621313514837565  0.0435145915480780  0.2556584607121362
  0.0517849982606083  0.9835658517382078  0.7560044805881178
  1.0102565017193073  0.4677745972213990  0.2587386498385612
  0.0298372535900013  0.5422180175963905  0.7592288438475062
  0.5621744614360571  0.0559963794371983  0.2436264326727401
  0.4583136586002632 -0.0048601253812898  0.7456901169315034
  0.5148871299759548  0.4500881497263186  0.2530080659459883
  0.4866857697778667  0.4533261796827914  0.7564212346327733
  0.2654637446052210  0.9649463124336826  0.0563700807870253
  0.2521376524392163  0.0229006963920200  0.4444479597866776
  0.2693857789471334  0.5443877414884242  0.0280579102433970
  0.2607532631940712  0.4861051294521053  0.4930557699679829
  0.7660408079898523  0.0352151390050381  0.9538148087331686
  0.7527373010921058  0.9743159712550028  0.5488738208878033
  0.7689952207168863  0.4352702747058969  0.9961200318010264
  0.7576008445579666  0.5253098570005972  0.5139368320406187
  0.0788313102765672  0.2559237372402747  0.9716957464858892
  0.9778303817734425  0.2567671476396994  0.5499992787559946
  0.9826143570003580  0.7557793041024967  0.0373159780249532
  1.0118575921845034  0.7573287488982633  0.4871367052213169
  0.4623551617733347  0.2481755782130251  0.9678638418844175
  0.5209816877167727  0.2504225077070304  0.5137976186396038
  0.5804409539705012  0.7508116994076501  0.0169521287496513
  0.4962941586899066  0.7632511634777989  0.3696887073974827
  0.5184561237374802  0.7118904234834135  0.6866213504881883

             NaN             NaN             NaN
             NaN             NaN             NaN
             NaN             NaN             NaN
             NaN             NaN             NaN
             NaN             NaN             NaN
             NaN             NaN             NaN
             NaN             NaN             NaN
             NaN             NaN             NaN
             NaN             NaN             NaN
             NaN             NaN             NaN
             NaN             NaN             NaN
             NaN             NaN             NaN
             NaN             NaN             NaN
             NaN             NaN             NaN
             NaN             NaN             NaN
             NaN             NaN             NaN
             NaN             NaN             NaN
             NaN             NaN             NaN
             NaN             NaN             NaN
             NaN             NaN             NaN
             NaN             NaN             NaN
             NaN             NaN             NaN
             NaN             NaN             NaN
             NaN             NaN             NaN
             NaN             NaN             NaN
             NaN             NaN             NaN
             NaN             NaN             NaN
             NaN             NaN             NaN
             NaN             NaN             NaN
             NaN             NaN             NaN
             NaN             NaN             NaN
             NaN             NaN             NaN
             NaN             NaN             NaN
             NaN             NaN             NaN
             NaN             NaN             NaN
             NaN             NaN             NaN
             NaN             NaN             NaN
             NaN             NaN             NaN
             NaN             NaN             NaN
             NaN             NaN             NaN
             NaN             NaN             NaN
