Pb              Cs              I       
   1.0000000000000000     
    12.5743331908999991    0.0000000000000000    0.0000000000000000
     0.0000000000000000   12.5743331908999991    0.0000000000000000
     0.0000000000000000    0.0000000000000000   12.5743331908999991
  Pb              Cs              I             
     8     8    25
Direct
  0.0152748719465400  0.0091665645467676  0.0112973195986483
  0.0075477085353865  0.0169426602189862  0.5098537899824594
  0.0038187268942942  0.5075219708232818  0.0017858365504010
  0.0011052903558197  0.5136213977546772  0.4930982126792799
  0.5028081133345288  0.0023379130041107  0.0080119730809990
  0.5090861925453857  0.0130336264244261  0.5086580849690157
  0.5048341747061483  0.5028281905243777  0.0116573657192646
  0.5393886933686624  0.5177108993972639  0.4945330001915660
  0.2571620491287849  0.2292009619821443  0.2243875242532330
  0.2595266020774267  0.2553979539711256  0.7198220498665400
  0.2518709975843461  0.7096113996171645  0.2507299122557115
  0.2518744576301680  0.7491854979060597  0.7074985513256953
  0.7522066050555766  0.2664159083272936  0.2607878830073099
  0.7512545458136600  0.2490386082191581  0.7700104640026444
  0.7572142811831033  0.8245062471151375  0.2732137687174249
  0.7759446130526839  0.8023177903955834  0.8080078638011166
  0.9809897424426323  0.0620376398490222  0.2602862718102295
  0.0435529867990812  0.9723103934664120  0.7606016993334431
  0.0450802460197602  0.4552506867440247  0.2465181182939160
  0.9935491451456201  0.5656731178538508  0.7486429731236514
  0.5342637508113257  0.0511742371434000  0.2581669487594049
  0.4785013872668383  0.9644238239934518  0.7582098049158204
  0.4604902610416617  0.4575131384979502  0.2539668286306446
  0.4516706889210347  0.5188515902504200  0.7591201829983250
  0.2589369816516836  0.9563510203208115  0.0556796443997802
  0.2580699933184167  0.0444519945943645  0.4811615476216020
  0.2514005523924612  0.5583448886648029  0.9775029155983948
  0.2477657983310885  0.4938795826050783  0.5130180753578192
  0.7593360781733511  0.0453347830983295  0.9981032699484679
  0.7583724693825025  0.9810902750292897  0.5497410565982822
  0.7532304177046060  0.4496844929115820  0.0117220095093488
  0.7585225966467077  0.5410992200504925  0.3795415913636280
  0.0543361614760548  0.2572759072255002  0.9589021088085785
  0.9710620607351987  0.2662272565828526  0.5527530543118597
  0.9691308378433610  0.7577368947608319  0.0575809621847124
  0.0279419308082606  0.7669312430849351  0.4584492324653623
  0.4592343983151614  0.2498400150491823  0.9663984834109892
  0.5431069647227459  0.2627599463193477  0.5389207205413016
  0.5563157853006844  0.7510463144790385  0.0428361842858676
  0.4813044528292076  0.7623672741131214  0.4577947256160239
  0.7032466723863302  0.5421403050488218  0.6880279901115330

             NaN             NaN             NaN
             NaN             NaN             NaN
             NaN             NaN             NaN
             NaN             NaN             NaN
             NaN             NaN             NaN
             NaN             NaN             NaN
             NaN             NaN             NaN
             NaN             NaN             NaN
             NaN             NaN             NaN
             NaN             NaN             NaN
             NaN             NaN             NaN
             NaN             NaN             NaN
             NaN             NaN             NaN
             NaN             NaN             NaN
             NaN             NaN             NaN
             NaN             NaN             NaN
             NaN             NaN             NaN
             NaN             NaN             NaN
             NaN             NaN             NaN
             NaN             NaN             NaN
             NaN             NaN             NaN
             NaN             NaN             NaN
             NaN             NaN             NaN
             NaN             NaN             NaN
             NaN             NaN             NaN
             NaN             NaN             NaN
             NaN             NaN             NaN
             NaN             NaN             NaN
             NaN             NaN             NaN
             NaN             NaN             NaN
             NaN             NaN             NaN
             NaN             NaN             NaN
             NaN             NaN             NaN
             NaN             NaN             NaN
             NaN             NaN             NaN
             NaN             NaN             NaN
             NaN             NaN             NaN
             NaN             NaN             NaN
             NaN             NaN             NaN
             NaN             NaN             NaN
             NaN             NaN             NaN
