Pb              Cs              I       
   1.0000000000000000     
    12.5743331908999991    0.0000000000000000    0.0000000000000000
     0.0000000000000000   12.5743331908999991    0.0000000000000000
     0.0000000000000000    0.0000000000000000   12.5743331908999991
  Pb              Cs              I             
     8     8    25
Direct
  0.0171354487179150  0.0112296557329394  0.0109835856155655
  0.0069504665159398  0.0156446207444724  0.5085732722131439
  0.0055153908102895  0.5048642844813523  0.0027402641442527
  1.0023327272555649  0.5112797988268067  0.4972905316151774
  0.5064925057094524  0.0027423220166329  0.0062040552849889
  0.5082118030751068  0.0111173229355051  0.5037130917967426
  0.5075272624510263  0.5026200588974646  0.0092220122997179
  0.5266353686643226  0.5185463551715853  0.4926089572965884
  0.2586769067773028  0.2347688793817675  0.2247972023857100
  0.2586157589985782  0.2457416929611704  0.7150077210744348
  0.2411011230967921  0.7184666982028962  0.2570295109493955
  0.2531928601475568  0.7489937126487646  0.7385051551554712
  0.7565926127337065  0.2712167194930535  0.2589573139964270
  0.7403491975746126  0.2545302216927719  0.7622053057460932
  0.7583711259911763  0.8160111169794144  0.2721777918243927
  0.7900672505869829  0.8059431293171992  0.8062185588591744
  0.9797719789205440  0.0585999565796800  0.2591748902141157
  0.0502148112954510  0.9773565074145640  0.7596463407175506
  0.0364190152321314  0.4511912815023565  0.2496682125574459
 -0.0032479540882707  0.5621803045756679  0.7515943506092716
  0.5408317776440996  0.0531855934428935  0.2548702394351841
  0.4757097074435377  0.9705951672688784  0.7547473027570897
  0.4745940579170682  0.4509828413732954  0.2511903165518268
  0.4368793737060748  0.5082998747929305  0.7621663397840177
  0.2618578450851876  0.9572382498218386  0.0541870827363240
  0.2573533934309153  0.0413272921581601  0.4722361961446532
  0.2542920176470113  0.5557871743390019  0.9986275693257918
  0.2508299923522843  0.4937634566971323  0.5047564323583981
  0.7625177012862213  0.0502294392409321  0.9910864079226442
  0.7577156714255845  0.9817937084990270  0.5494324195752525
  0.7564110607294546  0.4488624467085881  1.0047705044835973
  0.7587423563290185  0.5376628459178157  0.3976335775663709
  0.0635127294449891  0.2572736680133858  0.9621968647713625
  0.9707994798727381  0.2645662902848888  0.5548697926207352
  0.9742998434013200  0.7575730482428659  0.0560711805409479
  0.0217811580364375  0.7653507433887051  0.4654722704994353
  0.4594730695438661  0.2494767690016211  0.9660129242942421
  0.5348549580207861  0.2621880850586644  0.5353641221839137
  0.5624752068091189  0.7513859357855368  0.0333394865745648
  0.4831045719456603  0.7627853026747392  0.4423378108447578
  0.6803905452303607  0.5604310428435254  0.6893130346733711

             NaN             NaN             NaN
             NaN             NaN             NaN
             NaN             NaN             NaN
             NaN             NaN             NaN
             NaN             NaN             NaN
             NaN             NaN             NaN
             NaN             NaN             NaN
             NaN             NaN             NaN
             NaN             NaN             NaN
             NaN             NaN             NaN
             NaN             NaN             NaN
             NaN             NaN             NaN
             NaN             NaN             NaN
             NaN             NaN             NaN
             NaN             NaN             NaN
             NaN             NaN             NaN
             NaN             NaN             NaN
             NaN             NaN             NaN
             NaN             NaN             NaN
             NaN             NaN             NaN
             NaN             NaN             NaN
             NaN             NaN             NaN
             NaN             NaN             NaN
             NaN             NaN             NaN
             NaN             NaN             NaN
             NaN             NaN             NaN
             NaN             NaN             NaN
             NaN             NaN             NaN
             NaN             NaN             NaN
             NaN             NaN             NaN
             NaN             NaN             NaN
             NaN             NaN             NaN
             NaN             NaN             NaN
             NaN             NaN             NaN
             NaN             NaN             NaN
             NaN             NaN             NaN
             NaN             NaN             NaN
             NaN             NaN             NaN
             NaN             NaN             NaN
             NaN             NaN             NaN
             NaN             NaN             NaN
