Pb              Cs              I             
   1.0000000000000000     
  12.5743331908999991   0.0000000000000000   0.0000000000000000
   0.0000000000000000  12.5743331908999991   0.0000000000000000
   0.0000000000000000   0.0000000000000000  12.5743331908999991
Pb              Cs              I             
8  8  25  
Direct
  0.0123131787016141  0.9982948618242230  0.0109559036808608  
  0.0034569850543733  0.0124578812070003  0.5128220742034368  
  0.0069963149515394  0.4979326825187306  0.0112311286042951  
  0.9640232544215305  0.5151704388313916  0.4901612548771260  
  0.4997518188737023  0.0032823524225515  0.0114952001593760  
  0.5055901563854369  0.0155007015189988  0.5114418522221763  
  0.5072606741797391  0.5041293735880917  0.0004631262364576  
  0.5098614584809376  0.5142537006517717  0.4893363518787096  
  0.2562959414362723  0.2202823186000534  0.2281966482355596  
  0.2565775900442568  0.2798838573432455  0.7253675888945449  
  0.2516553325311894  0.7009754391082365  0.2458321585463390  
  0.2607346967373841  0.7551240853496873  0.6996986281391662  
  0.7583174571937923  0.2616399279524693  0.2548800387620521  
  0.7575798114365515  0.2338922250555210  0.7719280393788505  
  0.7561829836297291  0.8266608245551013  0.2738245987714331  
  0.7484596294158059  0.7891013392339314  0.8126447834135557  
  0.9844507337685764  0.0526350616322510  0.2624711619418267  
  0.0245825846700379  0.9531076875849174  0.7628490505801012  
  0.0512853750905914  0.4482455549943929  0.2534022774407046  
  0.0456284446018605  0.5360290810036492  0.7582001230638693  
  0.5284092915620736  0.0581923267744489  0.2618905317626944  
  0.4845895065899938  0.9620628675678183  0.7625900126158096  
  0.4611384857617428  0.4515645969455347  0.2447434009555481  
  0.5098641489224036  0.5624721541086392  0.7468114799044929  
  0.2561201554666529  0.9515928996106141  0.0538382141582382  
  0.2550803950034057  0.0507350238614046  0.5017637531888556  
  0.2588144324870791  0.5506274453089284  0.9677941921108151  
  0.2625820351741394  0.4999381603209659  0.5096420248346488  
  0.7560539088987102  0.0372050173278650  0.0065933370889841  
  0.7544448438696952  0.9765859305681316  0.5506295614389822  
  0.7579119986751098  0.4487745264715275  0.0055943240741314  
  0.7511658880019481  0.5395035006785457  0.3657305867317638  
  0.0522672986119752  0.2464013139241616  0.9632989772473615  
  0.9726023866006048  0.2616252502073496  0.5470044711664487  
  0.9645852509347070  0.7470408214920258  0.0556976578573813  
  0.0272878087320627  0.7606140403180101  0.4604727427755476  
  0.4639801969886405  0.2520838579024387  0.9587735764341349  
  0.5420374043912496  0.2657816526419846  0.5502195502937066  
  0.5450338853240538  0.7522094024950269  0.0574838399728714  
  0.4793428084472837  0.7667115151403673  0.4502523695379648  
  0.7926834479515393  0.5266783013579666  0.6789734068191413  
