Pb              Cs              I       
   1.0000000000000000     
    12.5743331908999991    0.0000000000000000    0.0000000000000000
     0.0000000000000000   12.5743331908999991    0.0000000000000000
     0.0000000000000000    0.0000000000000000   12.5743331908999991
  Pb              Cs              I             
     8     8    25
Direct
  0.0174313058342877  0.0113962688523169  0.0108602285610972
  0.0082416239698192  0.0131473529511160  0.5075049358444560
  0.0112800501486290  0.5028246808629189  0.0041337824958401
  0.0061948122990400  0.5106759674188152  0.5019448743256667
  0.5091959117435728  0.9997599336891414  0.0050806520986943
  0.5105310816219900  0.0053214340616410  0.4986363404020198
  0.5097400298066364  0.5050659411519617  0.0143192171809141
  0.5119555600542994  0.5355321373388959  0.4968282153994296
  0.2602553112539341  0.2282651820798891  0.2295394733030210
  0.2650274658595969  0.2381607068175033  0.7170121675800240
  0.2336539435199399  0.7100972998824058  0.2425250864143100
  0.2432883548658914  0.7431625512206276  0.7273430979379537
  0.7552590557407173  0.2800212488236913  0.2702984356667090
  0.7536546194454211  0.2578242377377499  0.7569784306545815
  0.7665043270214367  0.8046143607286617  0.2748024583770844
  0.7988803953269553  0.7912798161287969  0.8023080085302527
  0.9737206065873059  0.0568229177720029  0.2589746608604389
  0.0538746234226741  0.9783562697953910  0.7594135715666874
  0.0408503006613991  0.4534104444209621  0.2532790590389818
  0.9817493828973234  0.5504727767013606  0.7534522877474781
  0.5503004217964497  0.0525704739948824  0.2512405676830556
  0.4617116677874179 -0.0141530635971386  0.7528181524427447
  0.4718585497581394  0.4514965648672650  0.2561726093613635
  0.5102441616901413  0.4456540717216745  0.7648482832201999
  0.2634339732906155  0.9590151853575745  0.0580196590534214
  0.2583444787599810  0.0284643510621894  0.4668552327790246
  0.2616779756068358  0.5573842518978810  0.9769297468198080
  0.2584646185739218  0.4970645046662494  0.5293881532586447
  0.7643469222865386  0.0479930343335665  0.9787865287525708
  0.7593158235975820  0.9762328716868574  0.5522846720255493
  0.7614989181210421  0.4504680580645924  0.0114144602409417
  0.7587625779535160  0.5356598967882646  0.4456078492426651
  0.0666512347164185  0.2567687945872258  0.9636546323184338
  0.9830097461512511  0.2614805307629497  0.5523860973667912
  0.9780391314821122  0.7562926113805291  0.0545781411777870
  0.0274730993794583  0.7616495499273155  0.4679522951887367
  0.4576235242971148  0.2481098500377427  0.9778691285327139
  0.5359948847080347  0.2506212759974193  0.5224545693683240
  0.5716075736305075  0.7520365699908454  0.0314069879773715
  0.4863353321176119  0.7602537585204137  0.3925075039500929
  0.5394868975144375  0.6947800241337664  0.6945897452544204

             NaN             NaN             NaN
             NaN             NaN             NaN
             NaN             NaN             NaN
             NaN             NaN             NaN
             NaN             NaN             NaN
             NaN             NaN             NaN
             NaN             NaN             NaN
             NaN             NaN             NaN
             NaN             NaN             NaN
             NaN             NaN             NaN
             NaN             NaN             NaN
             NaN             NaN             NaN
             NaN             NaN             NaN
             NaN             NaN             NaN
             NaN             NaN             NaN
             NaN             NaN             NaN
             NaN             NaN             NaN
             NaN             NaN             NaN
             NaN             NaN             NaN
             NaN             NaN             NaN
             NaN             NaN             NaN
             NaN             NaN             NaN
             NaN             NaN             NaN
             NaN             NaN             NaN
             NaN             NaN             NaN
             NaN             NaN             NaN
             NaN             NaN             NaN
             NaN             NaN             NaN
             NaN             NaN             NaN
             NaN             NaN             NaN
             NaN             NaN             NaN
             NaN             NaN             NaN
             NaN             NaN             NaN
             NaN             NaN             NaN
             NaN             NaN             NaN
             NaN             NaN             NaN
             NaN             NaN             NaN
             NaN             NaN             NaN
             NaN             NaN             NaN
             NaN             NaN             NaN
             NaN             NaN             NaN
